1
75 482 499 191 198 216 219 221 237 238 239 242 243 255 277 284 289 301 310 313 316 330 340 352 362 377 385 405 420 421 442 445 451 456 463 464 465 471 472 474 475 478 479 484 486 487 488 490 496 498 502 503 505 506 507 508 509 510 511 512 513 514 515 516 517 519 520 521 522 523 524 525 526 527 528 529
10